solution status: optimal solution found
objective value:                                    0
$_225_y                                            10 	(obj:0)
$_225_z                                             8 	(obj:0)
$_102_y                                             8 	(obj:0)
$_102_z                                             4 	(obj:0)
$_184_y                                             9 	(obj:0)
$_184_z                                             9 	(obj:0)
$_262_y                                            12 	(obj:0)
$_262_z                                             9 	(obj:0)
$_57_y                                              8 	(obj:0)
$_57_z                                              2 	(obj:0)
$_36_y                                              7 	(obj:0)
$_36_z                                              5 	(obj:0)
$_272_y                                            14 	(obj:0)
$_272_z                                             8 	(obj:0)
$_221_y                                            13 	(obj:0)
$_221_z                                            12 	(obj:0)
$_35_y                                              9 	(obj:0)
$_35_z                                              5 	(obj:0)
$_103_y                                             9 	(obj:0)
$_103_z                                             8 	(obj:0)
$_180_y                                            13 	(obj:0)
$_180_z                                            11 	(obj:0)
$_266_y                                             8 	(obj:0)
$_266_z                                             5 	(obj:0)
$_58_y                                              6 	(obj:0)
$_58_z                                              2 	(obj:0)
$_149_y                                            15 	(obj:0)
$_149_z                                            11 	(obj:0)
$_231_y                                            14 	(obj:0)
$_231_z                                            10 	(obj:0)
$_190_y                                            14 	(obj:0)
$_190_z                                            11 	(obj:0)
$_286_y                                            12 	(obj:0)
$_286_z                                             8 	(obj:0)
